presolving:
(round 1, fast)       101 del vars, 0 del conss, 0 add conss, 0 chg bounds, 0 chg sides, 0 chg coeffs, 0 upgd conss, 0 impls, 200 clqs
(round 2, exhaustive) 101 del vars, 0 del conss, 0 add conss, 0 chg bounds, 0 chg sides, 0 chg coeffs, 200 upgd conss, 0 impls, 200 clqs
   (1.0s) probing: 51/9900 (0.5%) - 0 fixings, 0 aggregations, 0 implications, 0 bound changes
   (1.0s) probing aborted: 50/50 successive totally useless probings
   Deactivated symmetry handling methods, since SCIP was built without symmetry detector (SYM=none).
presolving (3 rounds: 3 fast, 2 medium, 2 exhaustive):
 101 deleted vars, 0 deleted constraints, 0 added constraints, 0 tightened bounds, 0 added holes, 0 changed sides, 0 changed coefficients
 0 implications, 200 cliques
presolved problem has 9999 variables (9900 bin, 0 int, 0 impl, 99 cont) and 9902 constraints
    200 constraints of type <setppc>
   9702 constraints of type <linear>
Presolving Time: 1.00

 time | node  | left  |LP iter|LP it/n|mem/heur|mdpt |vars |cons |rows |cuts |sepa|confs|strbr|  dualbound   | primalbound  |  gap   | compl. 
p 1.0s|     1 |     0 |    59 |     - | vbounds|   0 |9999 |9909 |9902 |   0 |  0 |   6 |   0 | 0.000000e+00 | 1.910231e+05 |    Inf | unknown
  1.0s|     1 |     0 |   348 |     - |   126M |   0 |9999 |9909 |9902 |   0 |  0 |   6 |   0 | 1.713304e+04 | 1.910231e+05 |1014.94%| unknown
  2.0s|     1 |     0 |   441 |     - |   130M |   0 |9999 |9909 |9979 |  77 |  1 |   6 |   0 | 1.832068e+04 | 1.910231e+05 | 942.66%| unknown
  2.0s|     1 |     0 |   509 |     - |   133M |   0 |9999 |9909 |  10k| 112 |  2 |   6 |   0 | 1.868892e+04 | 1.910231e+05 | 922.12%| unknown
  2.0s|     1 |     0 |   544 |     - |   135M |   0 |9999 |9909 |  10k| 128 |  3 |   6 |   0 | 1.926478e+04 | 1.910231e+05 | 891.57%| unknown
  2.0s|     1 |     0 |   556 |     - |   138M |   0 |9999 |9909 |  10k| 136 |  4 |   6 |   0 | 1.927237e+04 | 1.910231e+05 | 891.18%| unknown
  2.0s|     1 |     0 |   595 |     - |   139M |   0 |9999 |9909 |  10k| 154 |  5 |   6 |   0 | 1.931709e+04 | 1.910231e+05 | 888.88%| unknown
  2.0s|     1 |     0 |   620 |     - |   140M |   0 |9999 |9909 |  10k| 176 |  6 |   6 |   0 | 1.931709e+04 | 1.910231e+05 | 888.88%| unknown
  3.0s|     1 |     0 |   630 |     - |   141M |   0 |9999 |9909 |  10k| 182 |  7 |   6 |   0 | 1.931709e+04 | 1.910231e+05 | 888.88%| unknown
  3.0s|     1 |     0 |   645 |     - |   142M |   0 |9999 |9909 |  10k| 193 |  8 |   6 |   0 | 1.935719e+04 | 1.910231e+05 | 886.83%| unknown
  3.0s|     1 |     0 |   659 |     - |   145M |   0 |9999 |9909 |  10k| 197 |  9 |   6 |   0 | 1.935738e+04 | 1.910231e+05 | 886.82%| unknown
  4.0s|     1 |     0 |   698 |     - |   147M |   0 |9999 |9909 |  10k| 218 | 10 |   6 |   0 | 1.938438e+04 | 1.910231e+05 | 885.45%| unknown
  4.0s|     1 |     0 |   738 |     - |   148M |   0 |9999 |9909 |  10k| 232 | 11 |   6 |   0 | 1.945434e+04 | 1.910231e+05 | 881.90%| unknown
  4.0s|     1 |     0 |   755 |     - |   149M |   0 |9999 |9909 |  10k| 243 | 12 |   6 |   0 | 1.946423e+04 | 1.910231e+05 | 881.41%| unknown
  4.0s|     1 |     0 |   775 |     - |   150M |   0 |9999 |9909 |  10k| 253 | 13 |   6 |   0 | 1.950362e+04 | 1.910231e+05 | 879.42%| unknown
 time | node  | left  |LP iter|LP it/n|mem/heur|mdpt |vars |cons |rows |cuts |sepa|confs|strbr|  dualbound   | primalbound  |  gap   | compl. 
  4.0s|     1 |     0 |   779 |     - |   151M |   0 |9999 |9909 |  10k| 256 | 14 |   6 |   0 | 1.950362e+04 | 1.910231e+05 | 879.42%| unknown
  5.0s|     1 |     0 |   791 |     - |   152M |   0 |9999 |9909 |  10k| 264 | 15 |   6 |   0 | 1.950469e+04 | 1.910231e+05 | 879.37%| unknown
  5.0s|     1 |     0 |   800 |     - |   153M |   0 |9999 |9909 |  10k| 270 | 16 |   6 |   0 | 1.956879e+04 | 1.910231e+05 | 876.16%| unknown
  5.0s|     1 |     0 |   829 |     - |   154M |   0 |9999 |9909 |  10k| 276 | 17 |   6 |   0 | 1.973095e+04 | 1.910231e+05 | 868.14%| unknown
  5.0s|     1 |     0 |   853 |     - |   155M |   0 |9999 |9909 |  10k| 284 | 18 |   6 |   0 | 1.973925e+04 | 1.910231e+05 | 867.73%| unknown
  6.0s|     1 |     0 |   856 |     - |   156M |   0 |9999 |9909 |  10k| 288 | 19 |   6 |   0 | 1.973925e+04 | 1.910231e+05 | 867.73%| unknown
  6.0s|     1 |     0 |   886 |     - |   157M |   0 |9999 |9909 |  10k| 289 | 20 |   6 |   0 | 1.974336e+04 | 1.910231e+05 | 867.53%| unknown
  6.0s|     1 |     0 |   900 |     - |   157M |   0 |9999 |9909 |  10k| 296 | 21 |   6 |   0 | 1.974336e+04 | 1.910231e+05 | 867.53%| unknown
  6.0s|     1 |     0 |   927 |     - |   157M |   0 |9999 |9909 |  10k| 310 | 22 |   6 |   0 | 1.974468e+04 | 1.910231e+05 | 867.47%| unknown
  6.0s|     1 |     0 |   962 |     - |   157M |   0 |9999 |9909 |  10k| 341 | 23 |   6 |   0 | 1.976295e+04 | 1.910231e+05 | 866.57%| unknown
  7.0s|     1 |     0 |   971 |     - |   157M |   0 |9999 |9909 |  10k| 350 | 24 |   6 |   0 | 1.976295e+04 | 1.910231e+05 | 866.57%| unknown
  7.0s|     1 |     0 |   973 |     - |   157M |   0 |9999 |9909 |  10k| 352 | 25 |   6 |   0 | 1.976295e+04 | 1.910231e+05 | 866.57%| unknown
  7.0s|     1 |     0 |   982 |     - |   157M |   0 |9999 |9909 |  10k| 361 | 26 |   6 |   0 | 1.976295e+04 | 1.910231e+05 | 866.57%| unknown
  7.0s|     1 |     0 |   988 |     - |   157M |   0 |9999 |9909 |  10k| 367 | 27 |   6 |   0 | 1.976295e+04 | 1.910231e+05 | 866.57%| unknown
  7.0s|     1 |     0 |   989 |     - |   157M |   0 |9999 |9909 |  10k| 368 | 28 |   6 |   0 | 1.976295e+04 | 1.910231e+05 | 866.57%| unknown
 time | node  | left  |LP iter|LP it/n|mem/heur|mdpt |vars |cons |rows |cuts |sepa|confs|strbr|  dualbound   | primalbound  |  gap   | compl. 
  7.0s|     1 |     0 |   992 |     - |   157M |   0 |9999 |9909 |  10k| 372 | 29 |   6 |   0 | 1.976295e+04 | 1.910231e+05 | 866.57%| unknown
  7.0s|     1 |     0 |   994 |     - |   157M |   0 |9999 |9909 |  10k| 374 | 30 |   6 |   0 | 1.976295e+04 | 1.910231e+05 | 866.57%| unknown
  8.0s|     1 |     0 |   995 |     - |   157M |   0 |9999 |9909 |  10k| 375 | 32 |   6 |   0 | 1.976295e+04 | 1.910231e+05 | 866.57%| unknown
 23.0s|     1 |     2 |  6162 |     - |   159M |   0 |9999 |9917 |  10k| 375 | 33 |  14 |  56 | 1.982846e+04 | 1.910231e+05 | 863.38%| unknown
d 282s|    83 |    78 | 12979 | 146.9 |veclendi|  23 |9999 |9981 |  10k|   0 |  1 |  79 |1253 | 1.984797e+04 | 2.908244e+04 |  46.53%|   0.30%
  341s|   100 |    95 | 18623 | 178.7 |   188M |  23 |9999 |9981 |  10k| 699 |  1 |  79 |1488 | 1.984797e+04 | 2.908244e+04 |  46.53%|   0.33%
  439s|   200 |   189 | 27352 | 132.7 |   210M |  23 |9999 |  10k|  10k| 901 |  1 | 136 |1850 | 1.984797e+04 | 2.908244e+04 |  46.53%|   0.47%
L 478s|   283 |   270 | 31589 | 108.7 |    rins|  23 |9999 |  10k|  10k|1055 |  1 | 178 |1969 | 1.986400e+04 | 2.814362e+04 |  41.68%|   0.51%
  486s|   300 |   287 | 32663 | 106.1 |   223M |  23 |9999 |  10k|  10k|1097 |  1 | 195 |1990 | 1.986400e+04 | 2.814362e+04 |  41.68%|   0.52%
  515s|   400 |   387 | 40711 |  99.7 |   232M |  23 |9999 |  10k|  10k|1441 |  1 | 227 |2060 | 1.986413e+04 | 2.814362e+04 |  41.68%|   0.55%
L 547s|   483 |   470 | 50516 | 102.9 |    rins|  25 |9999 |  10k|  10k|1683 |  1 | 304 |2128 | 1.986413e+04 | 2.748269e+04 |  38.35%|   0.63%
  552s|   500 |   487 | 51304 | 100.9 |   246M |  25 |9999 |  10k|  10k|1734 |  1 | 326 |2144 | 1.986413e+04 | 2.748269e+04 |  38.35%|   0.64%
  578s|   600 |   587 | 57204 |  93.9 |   250M |  25 |9999 |  10k|  10k|1953 |  2 | 383 |2198 | 1.986413e+04 | 2.748269e+04 |  38.35%|   0.67%

SCIP Status        : solving was interrupted [time limit reached]
Solving Time (sec) : 600.00
Solving Nodes      : 666
Primal Bound       : +2.74826917278944e+04 (6 solutions)
Dual Bound         : +1.98641300692333e+04
Gap                : 38.35 %
Trying to solve problem with MTZ Solver Method...
Starting Solver, time limit setted to 10 minutes
Route:  [[0, 62], [1, 43], [2, 13], [3, 64], [4, 51], [5, 48], [6, 82], [7, 92], [8, 6], [9, 83], [10, 58], [11, 19], [12, 32], [13, 47], [14, 16], [15, 87], [16, 10], [17, 78], [18, 74], [19, 56], [20, 71], [21, 69], [22, 76], [23, 17], [24, 60], [25, 65], [26, 11], [27, 0], [28, 45], [29, 38], [30, 88], [31, 44], [32, 75], [33, 28], [34, 85], [35, 98], [36, 4], [37, 23], [38, 12], [39, 53], [40, 84], [41, 7], [42, 2], [43, 97], [44, 14], [45, 42], [46, 31], [47, 29], [48, 89], [49, 72], [50, 86], [51, 77], [52, 3], [53, 1], [54, 33], [55, 79], [56, 50], [57, 66], [58, 73], [59, 61], [60, 57], [61, 34], [62, 5], [63, 39], [64, 25], [65, 18], [66, 27], [67, 49], [68, 80], [69, 52], [70, 40], [71, 9], [72, 68], [73, 20], [74, 96], [75, 94], [76, 59], [77, 95], [78, 15], [79, 30], [80, 24], [81, 36], [82, 54], [83, 35], [84, 67], [85, 26], [86, 8], [87, 93], [88, 63], [89, 91], [90, 22], [91, 41], [92, 46], [93, 21], [94, 81], [95, 99], [96, 55], [97, 90], [98, 37], [99, 70]]
An Otimal Solution was found, yay!
Objective value: 27482.7
Problem solved in 61977 iterations
Problem solved in 666 nodes
Final Route Configuration succesfully created at:
data/routes/kroA100.csv
